\ This file has been generated by DOcplex
\ ENCODING=ISO-8859-1
\Problem name: random_problem.lp

Minimize
 obj: - 392 x0 - 196 x1 - 98 x2 + 1124 x3 + 562 x4 + 281 x5 + [ 1376 x0^2
      + 1376 x0*x1 + 688 x0*x2 + 1472 x0*x3 + 736 x0*x4 + 368 x0*x5 + 344 x1^2
      + 344 x1*x2 + 736 x1*x3 + 368 x1*x4 + 184 x1*x5 + 86 x2^2 + 368 x2*x3
      + 184 x2*x4 + 92 x2*x5 + 2432 x3^2 + 2432 x3*x4 + 1216 x3*x5 + 608 x4^2
      + 608 x4*x5 + 152 x5^2 ]/2
Subject To
 c0: 4 x0 + 2 x1 + x2 + 4 x3 + 2 x4 + x5 = 7

Bounds
 0 <= x0 <= 1
 0 <= x1 <= 1
 0 <= x2 <= 1
 0 <= x3 <= 1
 0 <= x4 <= 1
 0 <= x5 <= 1

Binaries
 x0 x1 x2 x3 x4 x5
End
